p tw 176 39601 2 
1 3 
1 4 
1 5 
1 6 
1 7 
1 8 
1 9 
1 10 
1 11 
1 12 
1 13 
1 14 
1 15 
1 16 
1 17 
1 18 
1 19 
1 20 
1 21 
1 22 
1 23 
1 24 
1 25 
1 26 
1 27 
1 28 
1 29 
1 30 
1 31 
1 43 
1 53 
1 67 
1 76 
1 91 
1 95 
1 108 
1 113 
1 137 
1 148 
1 151 
1 159 
1 161 
1 170 
1 171 
2 3 
2 4 
2 5 
2 6 
2 7 
2 8 
2 9 
2 10 
2 11 
2 12 
2 13 
2 14 
2 15 
2 16 
2 17 
2 29 
2 32 
2 33 
2 34 
2 35 
2 36 
2 37 
2 38 
2 39 
2 40 
2 41 
2 42 
2 43 
2 44 
2 45 
2 52 
2 66 
2 80 
2 84 
2 96 
2 115 
2 134 
2 140 
2 146 
2 154 
2 157 
2 160 
2 161 
2 162 
3 4 
3 5 
3 6 
3 7 
3 8 
3 9 
3 10 
3 11 
3 12 
3 13 
3 14 
3 15 
3 16 
3 18 
3 25 
3 32 
3 40 
3 46 
3 47 
3 48 
3 49 
3 50 
3 51 
3 52 
3 53 
3 54 
3 55 
3 56 
3 57 
3 58 
3 67 
3 71 
3 98 
3 106 
3 116 
3 122 
3 133 
3 147 
3 150 
3 160 
3 163 
3 164 
3 165 
4 5 
4 6 
4 7 
4 8 
4 9 
4 10 
4 11 
4 12 
4 13 
4 14 
4 15 
4 16 
4 19 
4 28 
4 33 
4 41 
4 46 
4 56 
4 59 
4 60 
4 61 
4 62 
4 63 
4 64 
4 65 
4 66 
4 67 
4 68 
4 69 
4 70 
4 77 
4 83 
4 102 
4 120 
4 127 
4 131 
4 143 
4 144 
4 145 
4 146 
4 147 
4 148 
5 6 
5 7 
5 8 
5 9 
5 10 
5 11 
5 12 
5 13 
5 14 
5 15 
5 16 
5 19 
5 30 
5 34 
5 38 
5 47 
5 56 
5 68 
5 71 
5 72 
5 73 
5 74 
5 75 
5 76 
5 77 
5 78 
5 79 
5 80 
5 81 
5 82 
5 86 
5 101 
5 106 
5 121 
5 134 
5 142 
5 152 
5 168 
5 171 
5 174 
5 175 
6 7 
6 8 
6 9 
6 10 
6 11 
6 12 
6 13 
6 14 
6 15 
6 16 
6 20 
6 31 
6 35 
6 36 
6 48 
6 50 
6 59 
6 70 
6 71 
6 79 
6 83 
6 84 
6 85 
6 86 
6 87 
6 88 
6 89 
6 90 
6 91 
6 92 
6 115 
6 120 
6 130 
6 132 
6 142 
6 155 
6 164 
6 166 
6 170 
6 173 
7 8 
7 9 
7 10 
7 11 
7 12 
7 13 
7 14 
7 15 
7 16 
7 21 
7 27 
7 36 
7 40 
7 49 
7 55 
7 60 
7 64 
7 72 
7 76 
7 83 
7 87 
7 93 
7 94 
7 95 
7 96 
7 97 
7 98 
7 99 
7 100 
7 101 
7 104 
7 112 
7 119 
7 126 
7 131 
7 139 
7 140 
7 141 
7 142 
8 9 
8 10 
8 11 
8 12 
8 13 
8 14 
8 15 
8 16 
8 22 
8 26 
8 33 
8 37 
8 50 
8 54 
8 61 
8 73 
8 75 
8 84 
8 85 
8 93 
8 94 
8 102 
8 103 
8 104 
8 105 
8 106 
8 107 
8 108 
8 109 
8 125 
8 131 
8 132 
8 133 
8 134 
8 135 
8 136 
8 137 
8 138 
9 10 
9 11 
9 12 
9 13 
9 14 
9 15 
9 16 
9 23 
9 28 
9 38 
9 44 
9 51 
9 57 
9 59 
9 69 
9 74 
9 81 
9 92 
9 94 
9 98 
9 102 
9 103 
9 110 
9 111 
9 112 
9 113 
9 114 
9 115 
9 116 
9 117 
9 124 
9 135 
9 141 
9 154 
9 159 
9 173 
9 174 
10 11 
10 12 
10 13 
10 14 
10 15 
10 16 
10 24 
10 30 
10 32 
10 39 
10 52 
10 62 
10 65 
10 73 
10 78 
10 85 
10 87 
10 93 
10 95 
10 110 
10 113 
10 118 
10 119 
10 120 
10 121 
10 122 
10 123 
10 124 
10 128 
10 133 
10 144 
10 149 
10 153 
10 154 
10 155 
10 156 
11 12 
11 13 
11 14 
11 15 
11 16 
11 25 
11 27 
11 34 
11 41 
11 49 
11 53 
11 62 
11 63 
11 82 
11 86 
11 91 
11 96 
11 103 
11 105 
11 111 
11 114 
11 118 
11 125 
11 126 
11 127 
11 128 
11 129 
11 130 
11 136 
11 156 
11 162 
11 165 
11 167 
11 173 
11 175 
12 13 
12 14 
12 15 
12 16 
12 21 
12 29 
12 39 
12 42 
12 57 
12 58 
12 63 
12 66 
12 72 
12 74 
12 88 
12 90 
12 105 
12 108 
12 110 
12 128 
12 132 
12 136 
12 139 
12 141 
12 143 
12 147 
12 149 
12 150 
12 151 
12 152 
12 158 
12 166 
12 168 
12 169 
13 14 
13 15 
13 16 
13 17 
13 18 
13 37 
13 55 
13 61 
13 65 
13 75 
13 79 
13 89 
13 92 
13 97 
13 100 
13 114 
13 117 
13 118 
13 121 
13 125 
13 139 
13 145 
13 146 
13 150 
13 153 
13 157 
13 158 
13 159 
13 163 
13 167 
13 168 
13 170 
13 172 
14 15 
14 16 
14 20 
14 22 
14 43 
14 45 
14 47 
14 54 
14 64 
14 68 
14 80 
14 90 
14 97 
14 99 
14 107 
14 112 
14 116 
14 123 
14 124 
14 127 
14 129 
14 135 
14 143 
14 151 
14 153 
14 155 
14 160 
14 166 
14 167 
14 172 
14 175 
14 176 
15 16 
15 23 
15 24 
15 42 
15 45 
15 48 
15 58 
15 60 
15 69 
15 77 
15 78 
15 89 
15 99 
15 104 
15 109 
15 117 
15 119 
15 129 
15 130 
15 137 
15 138 
15 145 
15 152 
15 156 
15 161 
15 162 
15 163 
15 164 
15 169 
15 174 
15 176 
16 26 
16 31 
16 35 
16 44 
16 46 
16 51 
16 70 
16 81 
16 82 
16 88 
16 100 
16 101 
16 107 
16 109 
16 111 
16 122 
16 123 
16 126 
16 138 
16 140 
16 144 
16 148 
16 149 
16 157 
16 158 
16 165 
16 169 
16 171 
16 172 
16 176 
17 18 
17 19 
17 20 
17 21 
17 22 
17 23 
17 24 
17 25 
17 26 
17 27 
17 28 
17 29 
17 30 
17 31 
17 32 
17 33 
17 34 
17 35 
17 36 
17 37 
17 38 
17 39 
17 40 
17 41 
17 42 
17 43 
17 44 
17 45 
17 55 
17 61 
17 79 
17 89 
17 97 
17 114 
17 121 
17 125 
17 145 
17 150 
17 153 
17 157 
17 158 
17 159 
18 19 
18 20 
18 21 
18 22 
18 23 
18 24 
18 25 
18 26 
18 27 
18 28 
18 29 
18 30 
18 31 
18 32 
18 37 
18 46 
18 47 
18 48 
18 49 
18 50 
18 51 
18 52 
18 53 
18 54 
18 55 
18 56 
18 57 
18 58 
18 65 
18 75 
18 92 
18 100 
18 117 
18 118 
18 139 
18 146 
18 163 
18 167 
18 168 
18 170 
18 172 
19 20 
19 21 
19 22 
19 23 
19 24 
19 25 
19 26 
19 27 
19 28 
19 29 
19 30 
19 31 
19 33 
19 34 
19 46 
19 47 
19 59 
19 60 
19 61 
19 62 
19 63 
19 64 
19 65 
19 66 
19 67 
19 68 
19 69 
19 70 
19 71 
19 72 
19 73 
19 74 
19 75 
19 76 
19 77 
19 78 
19 79 
19 80 
19 81 
19 82 
20 21 
20 22 
20 23 
20 24 
20 25 
20 26 
20 27 
20 28 
20 29 
20 30 
20 31 
20 35 
20 43 
20 47 
20 48 
20 59 
20 68 
20 71 
20 83 
20 84 
20 85 
20 86 
20 87 
20 88 
20 89 
20 90 
20 91 
20 92 
20 99 
20 107 
20 112 
20 123 
20 129 
20 135 
20 143 
20 153 
20 160 
20 166 
20 167 
21 22 
21 23 
21 24 
21 25 
21 26 
21 27 
21 28 
21 29 
21 30 
21 31 
21 36 
21 39 
21 49 
21 58 
21 60 
21 66 
21 72 
21 74 
21 83 
21 90 
21 93 
21 94 
21 95 
21 96 
21 97 
21 98 
21 99 
21 100 
21 101 
21 108 
21 128 
21 136 
21 141 
21 147 
21 158 
21 166 
21 168 
21 169 
22 23 
22 24 
22 25 
22 26 
22 27 
22 28 
22 29 
22 30 
22 31 
22 37 
22 45 
22 50 
22 54 
22 61 
22 64 
22 73 
22 80 
22 84 
22 90 
22 93 
22 97 
22 102 
22 103 
22 104 
22 105 
22 106 
22 107 
22 108 
22 109 
22 116 
22 124 
22 127 
22 151 
22 155 
22 172 
22 175 
22 176 
23 24 
23 25 
23 26 
23 27 
23 28 
23 29 
23 30 
23 31 
23 38 
23 45 
23 51 
23 58 
23 59 
23 69 
23 74 
23 77 
23 89 
23 94 
23 99 
23 102 
23 109 
23 110 
23 111 
23 112 
23 113 
23 114 
23 115 
23 116 
23 117 
23 119 
23 130 
23 138 
23 152 
23 156 
23 161 
23 163 
24 25 
24 26 
24 27 
24 28 
24 29 
24 30 
24 31 
24 39 
24 42 
24 48 
24 52 
24 60 
24 62 
24 73 
24 78 
24 85 
24 95 
24 104 
24 110 
24 117 
24 118 
24 119 
24 120 
24 121 
24 122 
24 123 
24 124 
24 129 
24 137 
24 145 
24 162 
24 164 
24 169 
24 174 
24 176 
25 26 
25 27 
25 28 
25 29 
25 30 
25 31 
25 34 
25 40 
25 53 
25 63 
25 67 
25 71 
25 86 
25 96 
25 98 
25 103 
25 106 
25 111 
25 116 
25 118 
25 122 
25 125 
25 126 
25 127 
25 128 
25 129 
25 130 
25 133 
25 147 
25 150 
25 160 
25 163 
25 164 
25 165 
26 27 
26 28 
26 29 
26 30 
26 31 
26 33 
26 35 
26 51 
26 54 
26 70 
26 75 
26 81 
26 85 
26 94 
26 101 
26 109 
26 123 
26 125 
26 126 
26 131 
26 132 
26 133 
26 134 
26 135 
26 136 
26 137 
26 138 
26 148 
26 149 
26 157 
26 165 
26 169 
26 172 
27 28 
27 29 
27 30 
27 31 
27 40 
27 41 
27 49 
27 55 
27 62 
27 64 
27 76 
27 82 
27 87 
27 91 
27 104 
27 105 
27 112 
27 114 
27 119 
27 126 
27 131 
27 136 
27 139 
27 140 
27 141 
27 142 
27 156 
27 162 
27 165 
27 167 
27 173 
27 175 
28 29 
28 30 
28 31 
28 41 
28 44 
28 56 
28 57 
28 69 
28 77 
28 81 
28 83 
28 92 
28 98 
28 102 
28 103 
28 120 
28 124 
28 127 
28 131 
28 135 
28 141 
28 143 
28 144 
28 145 
28 146 
28 147 
28 148 
28 154 
28 159 
28 173 
28 174 
29 30 
29 31 
29 42 
29 52 
29 57 
29 63 
29 66 
29 72 
29 80 
29 84 
29 88 
29 96 
29 105 
29 110 
29 115 
29 132 
29 134 
29 139 
29 140 
29 143 
29 146 
29 149 
29 150 
29 151 
29 152 
29 154 
29 157 
29 160 
29 161 
29 162 
30 31 
30 32 
30 38 
30 56 
30 65 
30 68 
30 78 
30 86 
30 87 
30 93 
30 101 
30 106 
30 113 
30 121 
30 128 
30 133 
30 134 
30 142 
30 144 
30 149 
30 152 
30 153 
30 154 
30 155 
30 156 
30 168 
30 171 
30 174 
30 175 
31 36 
31 44 
31 46 
31 50 
31 70 
31 79 
31 82 
31 88 
31 100 
31 107 
31 111 
31 115 
31 120 
31 122 
31 130 
31 132 
31 138 
31 140 
31 142 
31 144 
31 155 
31 158 
31 164 
31 166 
31 170 
31 171 
31 173 
31 176 
32 33 
32 34 
32 35 
32 36 
32 37 
32 38 
32 39 
32 40 
32 41 
32 42 
32 43 
32 44 
32 45 
32 46 
32 47 
32 48 
32 49 
32 50 
32 51 
32 52 
32 53 
32 54 
32 55 
32 56 
32 57 
32 58 
32 65 
32 78 
32 87 
32 93 
32 113 
32 128 
32 133 
32 144 
32 149 
32 153 
32 154 
32 155 
32 156 
33 34 
33 35 
33 36 
33 37 
33 38 
33 39 
33 40 
33 41 
33 42 
33 43 
33 44 
33 45 
33 46 
33 54 
33 59 
33 60 
33 61 
33 62 
33 63 
33 64 
33 65 
33 66 
33 67 
33 68 
33 69 
33 70 
33 75 
33 85 
33 94 
33 125 
33 131 
33 132 
33 133 
33 134 
33 135 
33 136 
33 137 
33 138 
34 35 
34 36 
34 37 
34 38 
34 39 
34 40 
34 41 
34 42 
34 43 
34 44 
34 45 
34 47 
34 53 
34 63 
34 71 
34 72 
34 73 
34 74 
34 75 
34 76 
34 77 
34 78 
34 79 
34 80 
34 81 
34 82 
34 86 
34 96 
34 103 
34 111 
34 118 
34 125 
34 126 
34 127 
34 128 
34 129 
34 130 
35 36 
35 37 
35 38 
35 39 
35 40 
35 41 
35 42 
35 43 
35 44 
35 45 
35 48 
35 51 
35 59 
35 70 
35 71 
35 81 
35 83 
35 84 
35 85 
35 86 
35 87 
35 88 
35 89 
35 90 
35 91 
35 92 
35 101 
35 109 
35 123 
35 126 
35 148 
35 149 
35 157 
35 165 
35 169 
35 172 
36 37 
36 38 
36 39 
36 40 
36 41 
36 42 
36 43 
36 44 
36 45 
36 49 
36 50 
36 60 
36 70 
36 72 
36 79 
36 83 
36 93 
36 94 
36 95 
36 96 
36 97 
36 98 
36 99 
36 100 
36 101 
36 115 
36 120 
36 130 
36 132 
36 142 
36 155 
36 164 
36 166 
36 170 
36 173 
37 38 
37 39 
37 40 
37 41 
37 42 
37 43 
37 44 
37 45 
37 50 
37 61 
37 65 
37 73 
37 75 
37 84 
37 92 
37 93 
37 100 
37 102 
37 103 
37 104 
37 105 
37 106 
37 107 
37 108 
37 109 
37 117 
37 118 
37 139 
37 146 
37 163 
37 167 
37 168 
37 170 
37 172 
38 39 
38 40 
38 41 
38 42 
38 43 
38 44 
38 45 
38 51 
38 56 
38 59 
38 68 
38 74 
38 86 
38 94 
38 101 
38 102 
38 106 
38 110 
38 111 
38 112 
38 113 
38 114 
38 115 
38 116 
38 117 
38 121 
38 134 
38 142 
38 152 
38 168 
38 171 
38 174 
38 175 
39 40 
39 41 
39 42 
39 43 
39 44 
39 45 
39 52 
39 58 
39 62 
39 66 
39 73 
39 74 
39 85 
39 90 
39 95 
39 108 
39 110 
39 118 
39 119 
39 120 
39 121 
39 122 
39 123 
39 124 
39 128 
39 136 
39 141 
39 147 
39 158 
39 166 
39 168 
39 169 
40 41 
40 42 
40 43 
40 44 
40 45 
40 55 
40 64 
40 67 
40 71 
40 76 
40 87 
40 98 
40 104 
40 106 
40 112 
40 116 
40 119 
40 122 
40 126 
40 131 
40 133 
40 139 
40 140 
40 141 
40 142 
40 147 
40 150 
40 160 
40 163 
40 164 
40 165 
41 42 
41 43 
41 44 
41 45 
41 49 
41 56 
41 62 
41 77 
41 82 
41 83 
41 91 
41 102 
41 105 
41 114 
41 120 
41 127 
41 131 
41 136 
41 143 
41 144 
41 145 
41 146 
41 147 
41 148 
41 156 
41 162 
41 165 
41 167 
41 173 
41 175 
42 43 
42 44 
42 45 
42 48 
42 57 
42 60 
42 63 
42 72 
42 78 
42 88 
42 104 
42 105 
42 110 
42 117 
42 129 
42 132 
42 137 
42 139 
42 143 
42 145 
42 149 
42 150 
42 151 
42 152 
42 162 
42 164 
42 169 
42 174 
42 176 
43 44 
43 45 
43 47 
43 53 
43 67 
43 68 
43 76 
43 91 
43 95 
43 99 
43 107 
43 108 
43 112 
43 113 
43 123 
43 129 
43 135 
43 137 
43 143 
43 148 
43 151 
43 153 
43 159 
43 160 
43 161 
43 166 
43 167 
43 170 
43 171 
44 45 
44 46 
44 57 
44 69 
44 81 
44 82 
44 88 
44 92 
44 98 
44 100 
44 103 
44 107 
44 111 
44 122 
44 124 
44 135 
44 138 
44 140 
44 141 
44 144 
44 154 
44 158 
44 159 
44 171 
44 173 
44 174 
44 176 
45 54 
45 58 
45 64 
45 69 
45 77 
45 80 
45 89 
45 90 
45 97 
45 99 
45 109 
45 116 
45 119 
45 124 
45 127 
45 130 
45 138 
45 151 
45 152 
45 155 
45 156 
45 161 
45 163 
45 172 
45 175 
45 176 
46 47 
46 48 
46 49 
46 50 
46 51 
46 52 
46 53 
46 54 
46 55 
46 56 
46 57 
46 58 
46 59 
46 60 
46 61 
46 62 
46 63 
46 64 
46 65 
46 66 
46 67 
46 68 
46 69 
46 70 
46 82 
46 88 
46 100 
46 107 
46 111 
46 122 
46 138 
46 140 
46 144 
46 158 
46 171 
46 176 
47 48 
47 49 
47 50 
47 51 
47 52 
47 53 
47 54 
47 55 
47 56 
47 57 
47 58 
47 68 
47 71 
47 72 
47 73 
47 74 
47 75 
47 76 
47 77 
47 78 
47 79 
47 80 
47 81 
47 82 
47 99 
47 107 
47 112 
47 123 
47 129 
47 135 
47 143 
47 153 
47 160 
47 166 
47 167 
48 49 
48 50 
48 51 
48 52 
48 53 
48 54 
48 55 
48 56 
48 57 
48 58 
48 59 
48 60 
48 71 
48 78 
48 83 
48 84 
48 85 
48 86 
48 87 
48 88 
48 89 
48 90 
48 91 
48 92 
48 104 
48 117 
48 129 
48 137 
48 145 
48 162 
48 164 
48 169 
48 174 
48 176 
49 50 
49 51 
49 52 
49 53 
49 54 
49 55 
49 56 
49 57 
49 58 
49 60 
49 62 
49 72 
49 82 
49 83 
49 91 
49 93 
49 94 
49 95 
49 96 
49 97 
49 98 
49 99 
49 100 
49 101 
49 105 
49 114 
49 136 
49 156 
49 162 
49 165 
49 167 
49 173 
49 175 
50 51 
50 52 
50 53 
50 54 
50 55 
50 56 
50 57 
50 58 
50 61 
50 70 
50 73 
50 79 
50 84 
50 93 
50 102 
50 103 
50 104 
50 105 
50 106 
50 107 
50 108 
50 109 
50 115 
50 120 
50 130 
50 132 
50 142 
50 155 
50 164 
50 166 
50 170 
50 173 
51 52 
51 53 
51 54 
51 55 
51 56 
51 57 
51 58 
51 59 
51 70 
51 74 
51 81 
51 94 
51 101 
51 102 
51 109 
51 110 
51 111 
51 112 
51 113 
51 114 
51 115 
51 116 
51 117 
51 123 
51 126 
51 148 
51 149 
51 157 
51 165 
51 169 
51 172 
52 53 
52 54 
52 55 
52 56 
52 57 
52 58 
52 62 
52 66 
52 73 
52 80 
52 84 
52 85 
52 95 
52 96 
52 110 
52 115 
52 118 
52 119 
52 120 
52 121 
52 122 
52 123 
52 124 
52 134 
52 140 
52 146 
52 154 
52 157 
52 160 
52 161 
52 162 
53 54 
53 55 
53 56 
53 57 
53 58 
53 63 
53 67 
53 76 
53 86 
53 91 
53 95 
53 96 
53 103 
53 108 
53 111 
53 113 
53 118 
53 125 
53 126 
53 127 
53 128 
53 129 
53 130 
53 137 
53 148 
53 151 
53 159 
53 161 
53 170 
53 171 
54 55 
54 56 
54 57 
54 58 
54 64 
54 75 
54 80 
54 85 
54 90 
54 94 
54 97 
54 116 
54 124 
54 125 
54 127 
54 131 
54 132 
54 133 
54 134 
54 135 
54 136 
54 137 
54 138 
54 151 
54 155 
54 172 
54 175 
54 176 
55 56 
55 57 
55 58 
55 61 
55 64 
55 76 
55 79 
55 87 
55 89 
55 97 
55 104 
55 112 
55 114 
55 119 
55 121 
55 125 
55 126 
55 131 
55 139 
55 140 
55 141 
55 142 
55 145 
55 150 
55 153 
55 157 
55 158 
55 159 
56 57 
56 58 
56 68 
56 77 
56 83 
56 86 
56 101 
56 102 
56 106 
56 120 
56 121 
56 127 
56 131 
56 134 
56 142 
56 143 
56 144 
56 145 
56 146 
56 147 
56 148 
56 152 
56 168 
56 171 
56 174 
56 175 
57 58 
57 63 
57 69 
57 72 
57 81 
57 88 
57 92 
57 98 
57 103 
57 105 
57 110 
57 124 
57 132 
57 135 
57 139 
57 141 
57 143 
57 149 
57 150 
57 151 
57 152 
57 154 
57 159 
57 173 
57 174 
58 66 
58 69 
58 74 
58 77 
58 89 
58 90 
58 99 
58 108 
58 109 
58 119 
58 128 
58 130 
58 136 
58 138 
58 141 
58 147 
58 152 
58 156 
58 158 
58 161 
58 163 
58 166 
58 168 
58 169 
59 60 
59 61 
59 62 
59 63 
59 64 
59 65 
59 66 
59 67 
59 68 
59 69 
59 70 
59 71 
59 74 
59 83 
59 84 
59 85 
59 86 
59 87 
59 88 
59 89 
59 90 
59 91 
59 92 
59 94 
59 102 
59 110 
59 111 
59 112 
59 113 
59 114 
59 115 
59 116 
59 117 
60 61 
60 62 
60 63 
60 64 
60 65 
60 66 
60 67 
60 68 
60 69 
60 70 
60 72 
60 78 
60 83 
60 93 
60 94 
60 95 
60 96 
60 97 
60 98 
60 99 
60 100 
60 101 
60 104 
60 117 
60 129 
60 137 
60 145 
60 162 
60 164 
60 169 
60 174 
60 176 
61 62 
61 63 
61 64 
61 65 
61 66 
61 67 
61 68 
61 69 
61 70 
61 73 
61 79 
61 84 
61 89 
61 93 
61 97 
61 102 
61 103 
61 104 
61 105 
61 106 
61 107 
61 108 
61 109 
61 114 
61 121 
61 125 
61 145 
61 150 
61 153 
61 157 
61 158 
61 159 
62 63 
62 64 
62 65 
62 66 
62 67 
62 68 
62 69 
62 70 
62 73 
62 82 
62 85 
62 91 
62 95 
62 105 
62 110 
62 114 
62 118 
62 119 
62 120 
62 121 
62 122 
62 123 
62 124 
62 136 
62 156 
62 162 
62 165 
62 167 
62 173 
62 175 
63 64 
63 65 
63 66 
63 67 
63 68 
63 69 
63 70 
63 72 
63 86 
63 88 
63 96 
63 103 
63 105 
63 110 
63 111 
63 118 
63 125 
63 126 
63 127 
63 128 
63 129 
63 130 
63 132 
63 139 
63 143 
63 149 
63 150 
63 151 
63 152 
64 65 
64 66 
64 67 
64 68 
64 69 
64 70 
64 76 
64 80 
64 87 
64 90 
64 97 
64 104 
64 112 
64 116 
64 119 
64 124 
64 126 
64 127 
64 131 
64 139 
64 140 
64 141 
64 142 
64 151 
64 155 
64 172 
64 175 
64 176 
65 66 
65 67 
65 68 
65 69 
65 70 
65 75 
65 78 
65 87 
65 92 
65 93 
65 100 
65 113 
65 117 
65 118 
65 128 
65 133 
65 139 
65 144 
65 146 
65 149 
65 153 
65 154 
65 155 
65 156 
65 163 
65 167 
65 168 
65 170 
65 172 
66 67 
66 68 
66 69 
66 70 
66 74 
66 80 
66 84 
66 90 
66 96 
66 108 
66 115 
66 128 
66 134 
66 136 
66 140 
66 141 
66 146 
66 147 
66 154 
66 157 
66 158 
66 160 
66 161 
66 162 
66 166 
66 168 
66 169 
67 68 
67 69 
67 70 
67 71 
67 76 
67 91 
67 95 
67 98 
67 106 
67 108 
67 113 
67 116 
67 122 
67 133 
67 137 
67 147 
67 148 
67 150 
67 151 
67 159 
67 160 
67 161 
67 163 
67 164 
67 165 
67 170 
67 171 
68 69 
68 70 
68 86 
68 99 
68 101 
68 106 
68 107 
68 112 
68 121 
68 123 
68 129 
68 134 
68 135 
68 142 
68 143 
68 152 
68 153 
68 160 
68 166 
68 167 
68 168 
68 171 
68 174 
68 175 
69 70 
69 77 
69 81 
69 89 
69 92 
69 98 
69 99 
69 103 
69 109 
69 119 
69 124 
69 130 
69 135 
69 138 
69 141 
69 152 
69 154 
69 156 
69 159 
69 161 
69 163 
69 173 
69 174 
70 79 
70 81 
70 101 
70 109 
70 115 
70 120 
70 123 
70 126 
70 130 
70 132 
70 142 
70 148 
70 149 
70 155 
70 157 
70 164 
70 165 
70 166 
70 169 
70 170 
70 172 
70 173 
71 72 
71 73 
71 74 
71 75 
71 76 
71 77 
71 78 
71 79 
71 80 
71 81 
71 82 
71 83 
71 84 
71 85 
71 86 
71 87 
71 88 
71 89 
71 90 
71 91 
71 92 
71 98 
71 106 
71 116 
71 122 
71 133 
71 147 
71 150 
71 160 
71 163 
71 164 
71 165 
72 73 
72 74 
72 75 
72 76 
72 77 
72 78 
72 79 
72 80 
72 81 
72 82 
72 83 
72 88 
72 93 
72 94 
72 95 
72 96 
72 97 
72 98 
72 99 
72 100 
72 101 
72 105 
72 110 
72 132 
72 139 
72 143 
72 149 
72 150 
72 151 
72 152 
73 74 
73 75 
73 76 
73 77 
73 78 
73 79 
73 80 
73 81 
73 82 
73 84 
73 85 
73 93 
73 95 
73 102 
73 103 
73 104 
73 105 
73 106 
73 107 
73 108 
73 109 
73 110 
73 118 
73 119 
73 120 
73 121 
73 122 
73 123 
73 124 
74 75 
74 76 
74 77 
74 78 
74 79 
74 80 
74 81 
74 82 
74 90 
74 94 
74 102 
74 108 
74 110 
74 111 
74 112 
74 113 
74 114 
74 115 
74 116 
74 117 
74 128 
74 136 
74 141 
74 147 
74 158 
74 166 
74 168 
74 169 
75 76 
75 77 
75 78 
75 79 
75 80 
75 81 
75 82 
75 85 
75 92 
75 94 
75 100 
75 117 
75 118 
75 125 
75 131 
75 132 
75 133 
75 134 
75 135 
75 136 
75 137 
75 138 
75 139 
75 146 
75 163 
75 167 
75 168 
75 170 
75 172 
76 77 
76 78 
76 79 
76 80 
76 81 
76 82 
76 87 
76 91 
76 95 
76 104 
76 108 
76 112 
76 113 
76 119 
76 126 
76 131 
76 137 
76 139 
76 140 
76 141 
76 142 
76 148 
76 151 
76 159 
76 161 
76 170 
76 171 
77 78 
77 79 
77 80 
77 81 
77 82 
77 83 
77 89 
77 99 
77 102 
77 109 
77 119 
77 120 
77 127 
77 130 
77 131 
77 138 
77 143 
77 144 
77 145 
77 146 
77 147 
77 148 
77 152 
77 156 
77 161 
77 163 
78 79 
78 80 
78 81 
78 82 
78 87 
78 93 
78 104 
78 113 
78 117 
78 128 
78 129 
78 133 
78 137 
78 144 
78 145 
78 149 
78 153 
78 154 
78 155 
78 156 
78 162 
78 164 
78 169 
78 174 
78 176 
79 80 
79 81 
79 82 
79 89 
79 97 
79 114 
79 115 
79 120 
79 121 
79 125 
79 130 
79 132 
79 142 
79 145 
79 150 
79 153 
79 155 
79 157 
79 158 
79 159 
79 164 
79 166 
79 170 
79 173 
80 81 
80 82 
80 84 
80 90 
80 96 
80 97 
80 115 
80 116 
80 124 
80 127 
80 134 
80 140 
80 146 
80 151 
80 154 
80 155 
80 157 
80 160 
80 161 
80 162 
80 172 
80 175 
80 176 
81 82 
81 92 
81 98 
81 101 
81 103 
81 109 
81 123 
81 124 
81 126 
81 135 
81 141 
81 148 
81 149 
81 154 
81 157 
81 159 
81 165 
81 169 
81 172 
81 173 
81 174 
82 88 
82 91 
82 100 
82 105 
82 107 
82 111 
82 114 
82 122 
82 136 
82 138 
82 140 
82 144 
82 156 
82 158 
82 162 
82 165 
82 167 
82 171 
82 173 
82 175 
82 176 
83 84 
83 85 
83 86 
83 87 
83 88 
83 89 
83 90 
83 91 
83 92 
83 93 
83 94 
83 95 
83 96 
83 97 
83 98 
83 99 
83 100 
83 101 
83 102 
83 120 
83 127 
83 131 
83 143 
83 144 
83 145 
83 146 
83 147 
83 148 
84 85 
84 86 
84 87 
84 88 
84 89 
84 90 
84 91 
84 92 
84 93 
84 96 
84 102 
84 103 
84 104 
84 105 
84 106 
84 107 
84 108 
84 109 
84 115 
84 134 
84 140 
84 146 
84 154 
84 157 
84 160 
84 161 
84 162 
85 86 
85 87 
85 88 
85 89 
85 90 
85 91 
85 92 
85 94 
85 95 
85 110 
85 118 
85 119 
85 120 
85 121 
85 122 
85 123 
85 124 
85 125 
85 131 
85 132 
85 133 
85 134 
85 135 
85 136 
85 137 
85 138 
86 87 
86 88 
86 89 
86 90 
86 91 
86 92 
86 96 
86 101 
86 103 
86 106 
86 111 
86 118 
86 121 
86 125 
86 126 
86 127 
86 128 
86 129 
86 130 
86 134 
86 142 
86 152 
86 168 
86 171 
86 174 
86 175 
87 88 
87 89 
87 90 
87 91 
87 92 
87 93 
87 104 
87 112 
87 113 
87 119 
87 126 
87 128 
87 131 
87 133 
87 139 
87 140 
87 141 
87 142 
87 144 
87 149 
87 153 
87 154 
87 155 
87 156 
88 89 
88 90 
88 91 
88 92 
88 100 
88 105 
88 107 
88 110 
88 111 
88 122 
88 132 
88 138 
88 139 
88 140 
88 143 
88 144 
88 149 
88 150 
88 151 
88 152 
88 158 
88 171 
88 176 
89 90 
89 91 
89 92 
89 97 
89 99 
89 109 
89 114 
89 119 
89 121 
89 125 
89 130 
89 138 
89 145 
89 150 
89 152 
89 153 
89 156 
89 157 
89 158 
89 159 
89 161 
89 163 
90 91 
90 92 
90 97 
90 108 
90 116 
90 124 
90 127 
90 128 
90 136 
90 141 
90 147 
90 151 
90 155 
90 158 
90 166 
90 168 
90 169 
90 172 
90 175 
90 176 
91 92 
91 95 
91 105 
91 108 
91 113 
91 114 
91 136 
91 137 
91 148 
91 151 
91 156 
91 159 
91 161 
91 162 
91 165 
91 167 
91 170 
91 171 
91 173 
91 175 
92 98 
92 100 
92 103 
92 117 
92 118 
92 124 
92 135 
92 139 
92 141 
92 146 
92 154 
92 159 
92 163 
92 167 
92 168 
92 170 
92 172 
92 173 
92 174 
93 94 
93 95 
93 96 
93 97 
93 98 
93 99 
93 100 
93 101 
93 102 
93 103 
93 104 
93 105 
93 106 
93 107 
93 108 
93 109 
93 113 
93 128 
93 133 
93 144 
93 149 
93 153 
93 154 
93 155 
93 156 
94 95 
94 96 
94 97 
94 98 
94 99 
94 100 
94 101 
94 102 
94 110 
94 111 
94 112 
94 113 
94 114 
94 115 
94 116 
94 117 
94 125 
94 131 
94 132 
94 133 
94 134 
94 135 
94 136 
94 137 
94 138 
95 96 
95 97 
95 98 
95 99 
95 100 
95 101 
95 108 
95 110 
95 113 
95 118 
95 119 
95 120 
95 121 
95 122 
95 123 
95 124 
95 137 
95 148 
95 151 
95 159 
95 161 
95 170 
95 171 
96 97 
96 98 
96 99 
96 100 
96 101 
96 103 
96 111 
96 115 
96 118 
96 125 
96 126 
96 127 
96 128 
96 129 
96 130 
96 134 
96 140 
96 146 
96 154 
96 157 
96 160 
96 161 
96 162 
97 98 
97 99 
97 100 
97 101 
97 114 
97 116 
97 121 
97 124 
97 125 
97 127 
97 145 
97 150 
97 151 
97 153 
97 155 
97 157 
97 158 
97 159 
97 172 
97 175 
97 176 
98 99 
98 100 
98 101 
98 103 
98 106 
98 116 
98 122 
98 124 
98 133 
98 135 
98 141 
98 147 
98 150 
98 154 
98 159 
98 160 
98 163 
98 164 
98 165 
98 173 
98 174 
99 100 
99 101 
99 107 
99 109 
99 112 
99 119 
99 123 
99 129 
99 130 
99 135 
99 138 
99 143 
99 152 
99 153 
99 156 
99 160 
99 161 
99 163 
99 166 
99 167 
100 101 
100 107 
100 111 
100 117 
100 118 
100 122 
100 138 
100 139 
100 140 
100 144 
100 146 
100 158 
100 163 
100 167 
100 168 
100 170 
100 171 
100 172 
100 176 
101 106 
101 109 
101 121 
101 123 
101 126 
101 134 
101 142 
101 148 
101 149 
101 152 
101 157 
101 165 
101 168 
101 169 
101 171 
101 172 
101 174 
101 175 
102 103 
102 104 
102 105 
102 106 
102 107 
102 108 
102 109 
102 110 
102 111 
102 112 
102 113 
102 114 
102 115 
102 116 
102 117 
102 120 
102 127 
102 131 
102 143 
102 144 
102 145 
102 146 
102 147 
102 148 
103 104 
103 105 
103 106 
103 107 
103 108 
103 109 
103 111 
103 118 
103 124 
103 125 
103 126 
103 127 
103 128 
103 129 
103 130 
103 135 
103 141 
103 154 
103 159 
103 173 
103 174 
104 105 
104 106 
104 107 
104 108 
104 109 
104 112 
104 117 
104 119 
104 126 
104 129 
104 131 
104 137 
104 139 
104 140 
104 141 
104 142 
104 145 
104 162 
104 164 
104 169 
104 174 
104 176 
105 106 
105 107 
105 108 
105 109 
105 110 
105 114 
105 132 
105 136 
105 139 
105 143 
105 149 
105 150 
105 151 
105 152 
105 156 
105 162 
105 165 
105 167 
105 173 
105 175 
106 107 
106 108 
106 109 
106 116 
106 121 
106 122 
106 133 
106 134 
106 142 
106 147 
106 150 
106 152 
106 160 
106 163 
106 164 
106 165 
106 168 
106 171 
106 174 
106 175 
107 108 
107 109 
107 111 
107 112 
107 122 
107 123 
107 129 
107 135 
107 138 
107 140 
107 143 
107 144 
107 153 
107 158 
107 160 
107 166 
107 167 
107 171 
107 176 
108 109 
108 113 
108 128 
108 136 
108 137 
108 141 
108 147 
108 148 
108 151 
108 158 
108 159 
108 161 
108 166 
108 168 
108 169 
108 170 
108 171 
109 119 
109 123 
109 126 
109 130 
109 138 
109 148 
109 149 
109 152 
109 156 
109 157 
109 161 
109 163 
109 165 
109 169 
109 172 
110 111 
110 112 
110 113 
110 114 
110 115 
110 116 
110 117 
110 118 
110 119 
110 120 
110 121 
110 122 
110 123 
110 124 
110 132 
110 139 
110 143 
110 149 
110 150 
110 151 
110 152 
111 112 
111 113 
111 114 
111 115 
111 116 
111 117 
111 118 
111 122 
111 125 
111 126 
111 127 
111 128 
111 129 
111 130 
111 138 
111 140 
111 144 
111 158 
111 171 
111 176 
112 113 
112 114 
112 115 
112 116 
112 117 
112 119 
112 123 
112 126 
112 129 
112 131 
112 135 
112 139 
112 140 
112 141 
112 142 
112 143 
112 153 
112 160 
112 166 
112 167 
113 114 
113 115 
113 116 
113 117 
113 128 
113 133 
113 137 
113 144 
113 148 
113 149 
113 151 
113 153 
113 154 
113 155 
113 156 
113 159 
113 161 
113 170 
113 171 
114 115 
114 116 
114 117 
114 121 
114 125 
114 136 
114 145 
114 150 
114 153 
114 156 
114 157 
114 158 
114 159 
114 162 
114 165 
114 167 
114 173 
114 175 
115 116 
115 117 
115 120 
115 130 
115 132 
115 134 
115 140 
115 142 
115 146 
115 154 
115 155 
115 157 
115 160 
115 161 
115 162 
115 164 
115 166 
115 170 
115 173 
116 117 
116 122 
116 124 
116 127 
116 133 
116 147 
116 150 
116 151 
116 155 
116 160 
116 163 
116 164 
116 165 
116 172 
116 175 
116 176 
117 118 
117 129 
117 137 
117 139 
117 145 
117 146 
117 162 
117 163 
117 164 
117 167 
117 168 
117 169 
117 170 
117 172 
117 174 
117 176 
118 119 
118 120 
118 121 
118 122 
118 123 
118 124 
118 125 
118 126 
118 127 
118 128 
118 129 
118 130 
118 139 
118 146 
118 163 
118 167 
118 168 
118 170 
118 172 
119 120 
119 121 
119 122 
119 123 
119 124 
119 126 
119 130 
119 131 
119 138 
119 139 
119 140 
119 141 
119 142 
119 152 
119 156 
119 161 
119 163 
120 121 
120 122 
120 123 
120 124 
120 127 
120 130 
120 131 
120 132 
120 142 
120 143 
120 144 
120 145 
120 146 
120 147 
120 148 
120 155 
120 164 
120 166 
120 170 
120 173 
121 122 
121 123 
121 124 
121 125 
121 134 
121 142 
121 145 
121 150 
121 152 
121 153 
121 157 
121 158 
121 159 
121 168 
121 171 
121 174 
121 175 
122 123 
122 124 
122 133 
122 138 
122 140 
122 144 
122 147 
122 150 
122 158 
122 160 
122 163 
122 164 
122 165 
122 171 
122 176 
123 124 
123 126 
123 129 
123 135 
123 143 
123 148 
123 149 
123 153 
123 157 
123 160 
123 165 
123 166 
123 167 
123 169 
123 172 
124 127 
124 135 
124 141 
124 151 
124 154 
124 155 
124 159 
124 172 
124 173 
124 174 
124 175 
124 176 
125 126 
125 127 
125 128 
125 129 
125 130 
125 131 
125 132 
125 133 
125 134 
125 135 
125 136 
125 137 
125 138 
125 145 
125 150 
125 153 
125 157 
125 158 
125 159 
126 127 
126 128 
126 129 
126 130 
126 131 
126 139 
126 140 
126 141 
126 142 
126 148 
126 149 
126 157 
126 165 
126 169 
126 172 
127 128 
127 129 
127 130 
127 131 
127 143 
127 144 
127 145 
127 146 
127 147 
127 148 
127 151 
127 155 
127 172 
127 175 
127 176 
128 129 
128 130 
128 133 
128 136 
128 141 
128 144 
128 147 
128 149 
128 153 
128 154 
128 155 
128 156 
128 158 
128 166 
128 168 
128 169 
129 130 
129 135 
129 137 
129 143 
129 145 
129 153 
129 160 
129 162 
129 164 
129 166 
129 167 
129 169 
129 174 
129 176 
130 132 
130 138 
130 142 
130 152 
130 155 
130 156 
130 161 
130 163 
130 164 
130 166 
130 170 
130 173 
131 132 
131 133 
131 134 
131 135 
131 136 
131 137 
131 138 
131 139 
131 140 
131 141 
131 142 
131 143 
131 144 
131 145 
131 146 
131 147 
131 148 
132 133 
132 134 
132 135 
132 136 
132 137 
132 138 
132 139 
132 142 
132 143 
132 149 
132 150 
132 151 
132 152 
132 155 
132 164 
132 166 
132 170 
132 173 
133 134 
133 135 
133 136 
133 137 
133 138 
133 144 
133 147 
133 149 
133 150 
133 153 
133 154 
133 155 
133 156 
133 160 
133 163 
133 164 
133 165 
134 135 
134 136 
134 137 
134 138 
134 140 
134 142 
134 146 
134 152 
134 154 
134 157 
134 160 
134 161 
134 162 
134 168 
134 171 
134 174 
134 175 
135 136 
135 137 
135 138 
135 141 
135 143 
135 153 
135 154 
135 159 
135 160 
135 166 
135 167 
135 173 
135 174 
136 137 
136 138 
136 141 
136 147 
136 156 
136 158 
136 162 
136 165 
136 166 
136 167 
136 168 
136 169 
136 173 
136 175 
137 138 
137 145 
137 148 
137 151 
137 159 
137 161 
137 162 
137 164 
137 169 
137 170 
137 171 
137 174 
137 176 
138 140 
138 144 
138 152 
138 156 
138 158 
138 161 
138 163 
138 171 
138 176 
139 140 
139 141 
139 142 
139 143 
139 146 
139 149 
139 150 
139 151 
139 152 
139 163 
139 167 
139 168 
139 170 
139 172 
140 141 
140 142 
140 144 
140 146 
140 154 
140 157 
140 158 
140 160 
140 161 
140 162 
140 171 
140 176 
141 142 
141 147 
141 154 
141 158 
141 159 
141 166 
141 168 
141 169 
141 173 
141 174 
142 152 
142 155 
142 164 
142 166 
142 168 
142 170 
142 171 
142 173 
142 174 
142 175 
143 144 
143 145 
143 146 
143 147 
143 148 
143 149 
143 150 
143 151 
143 152 
143 153 
143 160 
143 166 
143 167 
144 145 
144 146 
144 147 
144 148 
144 149 
144 153 
144 154 
144 155 
144 156 
144 158 
144 171 
144 176 
145 146 
145 147 
145 148 
145 150 
145 153 
145 157 
145 158 
145 159 
145 162 
145 164 
145 169 
145 174 
145 176 
146 147 
146 148 
146 154 
146 157 
146 160 
146 161 
146 162 
146 163 
146 167 
146 168 
146 170 
146 172 
147 148 
147 150 
147 158 
147 160 
147 163 
147 164 
147 165 
147 166 
147 168 
147 169 
148 149 
148 151 
148 157 
148 159 
148 161 
148 165 
148 169 
148 170 
148 171 
148 172 
149 150 
149 151 
149 152 
149 153 
149 154 
149 155 
149 156 
149 157 
149 165 
149 169 
149 172 
150 151 
150 152 
150 153 
150 157 
150 158 
150 159 
150 160 
150 163 
150 164 
150 165 
151 152 
151 155 
151 159 
151 161 
151 170 
151 171 
151 172 
151 175 
151 176 
152 156 
152 161 
152 163 
152 168 
152 171 
152 174 
152 175 
153 154 
153 155 
153 156 
153 157 
153 158 
153 159 
153 160 
153 166 
153 167 
154 155 
154 156 
154 157 
154 159 
154 160 
154 161 
154 162 
154 173 
154 174 
155 156 
155 164 
155 166 
155 170 
155 172 
155 173 
155 175 
155 176 
156 161 
156 162 
156 163 
156 165 
156 167 
156 173 
156 175 
157 158 
157 159 
157 160 
157 161 
157 162 
157 165 
157 169 
157 172 
158 159 
158 166 
158 168 
158 169 
158 171 
158 176 
159 161 
159 170 
159 171 
159 173 
159 174 
160 161 
160 162 
160 163 
160 164 
160 165 
160 166 
160 167 
161 162 
161 163 
161 170 
161 171 
162 164 
162 165 
162 167 
162 169 
162 173 
162 174 
162 175 
162 176 
163 164 
163 165 
163 167 
163 168 
163 170 
163 172 
164 165 
164 166 
164 169 
164 170 
164 173 
164 174 
164 176 
165 167 
165 169 
165 172 
165 173 
165 175 
166 167 
166 168 
166 169 
166 170 
166 173 
167 168 
167 170 
167 172 
167 173 
167 175 
168 169 
168 170 
168 171 
168 172 
168 174 
168 175 
169 172 
169 174 
169 176 
170 171 
170 172 
170 173 
171 174 
171 175 
171 176 
172 175 
172 176 
173 174 
173 175 
174 175 
174 176 
175 176 
